100 100 100
50
49 75 84
85 92 19
25 3 8
79 83 92
96 56 80
48 38 36
16 95 68
16 88 77
97 31 82
50 69 57
85 65 50
17 89 93
48 92 82
11 79 73
33 91 77
6 3 43
25 100 80
90 70 22
32 81 91
8 20 23
98 60 85
47 45 14
4 98 70
2 75 88
40 90 80
87 35 79
34 86 68
90 33 99
88 6 89
95 92 50
11 92 66
41 100 99
14 69 90
28 67 85
16 68 99
8 87 68
4 8 3
78 93 43
97 20 83
1 75 83
92 92 35
45 71 76
80 84 44
45 79 79
66 73 46
67 8 78
74 21 71
17 68 79
16 66 97
6 13 4
